0 0 0 0
0 1 0 0
0 2 0 0
0 3 0 11
0 4 0 4
0 5 0 13
0 6 0 8
0 7 0 34
0 8 0 60
0 9 0 28
0 10 0 23
0 11 0 46
0 12 0 13
0 13 0 97
0 14 0 18
0 15 0 34
0 16 0 11
0 17 0 38
0 18 0 46
0 19 0 38
0 20 0 28
0 21 0 78
0 22 0 54
0 23 0 137
0 24 0 73
0 25 0 60
0 26 0 68
0 27 0 160
0 28 0 85
0 29 0 59
0 30 0 79
0 31 0 85
0 32 0 79
0 33 0 33
0 34 0 119
0 35 0 46
0 36 0 68
0 37 0 90
0 38 0 91
0 39 0 44
0 40 0 42
0 41 0 96
0 42 0 85
0 43 0 103
0 44 0 163
0 45 0 129
0 46 0 69
0 47 0 155
0 48 0 96
0 49 0 112
0 50 0 22
0 51 0 50
0 52 0 112
0 53 0 6
0 54 0 124
0 55 0 105
0 56 0 110
0 57 0 146
0 58 0 153
0 59 0 137
0 60 0 180
0 61 0 241
0 62 0 124
0 63 0 160
0 64 0 137
0 65 0 127
0 66 0 146
0 67 0 180
0 68 0 172
0 69 0 50
0 70 0 127
0 71 0 153
0 72 0 212
0 73 0 203
0 74 0 179
0 75 0 144
0 76 0 195
0 77 0 168
0 78 0 195
0 79 0 158
0 80 0 228
0 81 0 184
0 82 0 170
0 83 0 231
0 84 0 231
0 85 0 146
0 86 0 160
0 87 0 185
0 88 0 203
0 89 0 203
0 90 0 224
0 91 0 197
0 92 0 212
0 93 0 228
0 94 0 231
0 95 0 185
0 96 0 261
0 97 0 185
0 98 0 240
0 99 0 218
0 100 0 271
0 101 0 247
0 102 0 251
0 103 0 263
0 104 0 254
0 105 0 247
0 106 0 252
0 107 0 239
0 108 0 261
0 109 0 280
0 110 0 257
0 111 0 253
0 112 0 217
0 113 0 285
0 114 0 271
0 115 0 279
0 116 0 283
0 117 0 253
0 118 0 292
0 119 0 271
0 120 0 289
0 121 0 299
